\* The_truck_routing_problem *\
Minimize
routing_cost: 5549.14 Pattern_0 + 2796.46 Pattern_1 + 8479.12 Pattern_10
 + 3312.39 Pattern_11 + 5818.72 Pattern_12 + 7105.85 Pattern_13
 + 4477.67 Pattern_14 + 4771.14 Pattern_15 + 7570.22 Pattern_16
 + 6595.87 Pattern_17 + 6621.87 Pattern_18 + 5880.51 Pattern_19
 + 6029.74 Pattern_2 + 5484.85 Pattern_20 + 4901.03 Pattern_21
 + 4702 Pattern_22 + 6839.49 Pattern_23 + 5322.33 Pattern_24
 + 5409.81 Pattern_25 + 5027.97 Pattern_26 + 6817.51 Pattern_27
 + 1617.14 Pattern_28 + 6929.7 Pattern_3 + 5995.07 Pattern_4
 + 7834.95 Pattern_5 + 6243.8 Pattern_6 + 5919.97 Pattern_7
 + 3668.37 Pattern_8 + 5034.83 Pattern_9
Subject To
Satisfying_demand_for_Noel_Leeming_Albany: Pattern_0 + Pattern_15 = 1
Satisfying_demand_for_Noel_Leeming_Botany: Pattern_13 + Pattern_26 = 1
Satisfying_demand_for_Noel_Leeming_Glenfield_Clearance: Pattern_1 + Pattern_14
 = 1
Satisfying_demand_for_Noel_Leeming_Henderson: Pattern_17 + Pattern_3 = 1
Satisfying_demand_for_Noel_Leeming_Lunn_Avenue: Pattern_20 + Pattern_6 = 1
Satisfying_demand_for_Noel_Leeming_Manukau_Supa_Centre: Pattern_13
 + Pattern_26 = 1
Satisfying_demand_for_Noel_Leeming_Manukau_Westfield: Pattern_13 + Pattern_28
 = 1
Satisfying_demand_for_Noel_Leeming_Massey: Pattern_16 + Pattern_2 = 1
Satisfying_demand_for_Noel_Leeming_New_Lynn: Pattern_16 + Pattern_5 = 1
Satisfying_demand_for_Noel_Leeming_Newmarket: Pattern_21 + Pattern_7 = 1
Satisfying_demand_for_Noel_Leeming_Ormiston: Pattern_13 + Pattern_27 = 1
Satisfying_demand_for_Noel_Leeming_Papakura: Pattern_23 + Pattern_9 = 1
Satisfying_demand_for_Noel_Leeming_Papatoetoe: Pattern_10 + Pattern_24 = 1
Satisfying_demand_for_Noel_Leeming_Penrose_Clearance: Pattern_10 + Pattern_24
 = 1
Satisfying_demand_for_Noel_Leeming_Queen_Street: Pattern_20 + Pattern_8 = 1
Satisfying_demand_for_Noel_Leeming_Royal_Oak: Pattern_21 + Pattern_7 = 1
Satisfying_demand_for_Noel_Leeming_St_Lukes_Mega: Pattern_19 + Pattern_2 = 1
Satisfying_demand_for_Noel_Leeming_St_Lukes_Westfield: Pattern_18 + Pattern_2
 = 1
Satisfying_demand_for_Noel_Leeming_Sylvia_Park: Pattern_10 + Pattern_25 = 1
Satisfying_demand_for_Noel_Leeming_Wairau_Park: Pattern_0 + Pattern_15 = 1
Satisfying_demand_for_The_Warehouse_Airport: Pattern_10 + Pattern_25 = 1
Satisfying_demand_for_The_Warehouse_Albany: Pattern_0 + Pattern_14 = 1
Satisfying_demand_for_The_Warehouse_Atrium: Pattern_20 + Pattern_6 = 1
Satisfying_demand_for_The_Warehouse_Botany_Downs: Pattern_12 + Pattern_27 = 1
Satisfying_demand_for_The_Warehouse_Clendon: Pattern_23 + Pattern_9 = 1
Satisfying_demand_for_The_Warehouse_Glenfield_Mall: Pattern_1 + Pattern_14 = 1
Satisfying_demand_for_The_Warehouse_Lincoln_Road: Pattern_19 + Pattern_5 = 1
Satisfying_demand_for_The_Warehouse_Lunn_Avenue: Pattern_22 + Pattern_7 = 1
Satisfying_demand_for_The_Warehouse_Manukau: Pattern_12 + Pattern_26 = 1
Satisfying_demand_for_The_Warehouse_Milford: Pattern_0 + Pattern_15 = 1
Satisfying_demand_for_The_Warehouse_Mt_Roskill: Pattern_18 + Pattern_3 = 1
Satisfying_demand_for_The_Warehouse_New_Lynn: Pattern_18 + Pattern_4 = 1
Satisfying_demand_for_The_Warehouse_Newmarket: Pattern_22 + Pattern_8 = 1
Satisfying_demand_for_The_Warehouse_Pakuranga: Pattern_12 + Pattern_27 = 1
Satisfying_demand_for_The_Warehouse_Royal_Oak: Pattern_21 + Pattern_6 = 1
Satisfying_demand_for_The_Warehouse_St_Lukes: Pattern_16 + Pattern_5 = 1
Satisfying_demand_for_The_Warehouse_Sylvia_Park: Pattern_11 + Pattern_24 = 1
Satisfying_demand_for_The_Warehouse_Takanini: Pattern_23 + Pattern_9 = 1
Satisfying_demand_for_The_Warehouse_WestCity: Pattern_17 + Pattern_4 = 1
Satisfying_demand_for_The_Warehouse_Westgate: Pattern_17 + Pattern_3 = 1
Binaries
Pattern_0
Pattern_1
Pattern_10
Pattern_11
Pattern_12
Pattern_13
Pattern_14
Pattern_15
Pattern_16
Pattern_17
Pattern_18
Pattern_19
Pattern_2
Pattern_20
Pattern_21
Pattern_22
Pattern_23
Pattern_24
Pattern_25
Pattern_26
Pattern_27
Pattern_28
Pattern_3
Pattern_4
Pattern_5
Pattern_6
Pattern_7
Pattern_8
Pattern_9
End
